p cnf 132 456
-3 1 0
-3 2 0
-1 -2 3 0
-5 3 0
-5 4 0
-3 -4 5 0
7 -6 0
7 2 0
6 -2 -7 0
-8 -5 0
-8 -7 0
5 7 8 0
-8 9 -10 0
8 -9 -10 0
-8 -9 10 0
8 9 10 0
12 4 -13 0
-12 -4 -13 0
12 -4 13 0
-12 4 13 0
-14 -11 -15 0
14 11 -15 0
-14 11 15 0
14 -11 15 0
16 13 0
16 15 0
-13 -15 -16 0
17 16 0
17 -12 0
-16 12 -17 0
17 16 -18 0
-17 -16 -18 0
17 -16 18 0
-17 16 18 0
-19 -11 0
-19 -18 0
11 18 19 0
14 4 -20 0
-14 -4 -20 0
14 -4 20 0
-14 4 20 0
-21 -20 0
-21 -11 0
20 11 21 0
-22 21 0
-22 7 0
-21 -7 22 0
23 22 0
23 -9 0
-22 9 -23 0
-25 -12 0
-25 24 0
12 -24 25 0
-26 23 0
-26 -25 0
-23 25 26 0
-28 27 0
-28 -20 0
-27 20 28 0
28 -29 -30 0
-28 29 -30 0
28 29 30 0
-28 -29 30 0
-30 -12 -31 0
30 12 -31 0
-30 12 31 0
30 -12 31 0
-26 -31 -32 0
26 31 -32 0
-26 31 32 0
26 -31 32 0
-33 -4 0
-33 4 0
12 33 -34 0
-12 -33 -34 0
12 -33 34 0
-12 33 34 0
-12 -9 -35 0
12 9 -35 0
-12 9 35 0
12 -9 35 0
-35 2 -36 0
35 -2 -36 0
-35 -2 36 0
35 2 36 0
-37 -36 0
-37 -24 0
36 24 37 0
38 -24 0
38 37 0
24 -37 -38 0
-41 39 0
-41 40 0
-39 -40 41 0
42 -33 0
42 41 0
33 -41 -42 0
38 -42 -43 0
-38 42 -43 0
38 42 43 0
-38 -42 43 0
44 36 0
44 -27 0
-36 27 -44 0
-45 -43 0
-45 -44 0
43 44 45 0
-46 16 0
-46 45 0
-16 -45 46 0
-47 -9 -48 0
47 9 -48 0
-47 9 48 0
47 -9 48 0
49 25 0
49 48 0
-25 -48 -49 0
50 9 0
50 -27 0
-9 27 -50 0
-49 -50 -51 0
49 50 -51 0
-49 50 51 0
49 -50 51 0
20 5 -52 0
-20 -5 -52 0
20 -5 52 0
-20 5 52 0
-53 21 0
-53 52 0
-21 -52 53 0
54 -51 0
54 53 0
51 -53 -54 0
-55 46 0
-55 54 0
-46 -54 55 0
-34 55 -56 0
34 -55 -56 0
-34 -55 56 0
34 55 56 0
57 32 0
57 -56 0
-32 56 -57 0
58 -33 0
58 -7 0
33 7 -58 0
59 -20 0
59 -58 0
20 58 -59 0
20 -59 -60 0
-20 59 -60 0
20 59 60 0
-20 -59 60 0
-61 -39 0
-61 -2 0
39 2 61 0
61 48 -62 0
-61 -48 -62 0
61 -48 62 0
-61 48 62 0
-62 -48 -63 0
62 48 -63 0
-62 48 63 0
62 -48 63 0
64 29 0
64 -9 0
-29 9 -64 0
-61 64 -65 0
61 -64 -65 0
-61 -64 65 0
61 64 65 0
-66 -6 0
-66 65 0
6 -65 66 0
-67 63 0
-67 -66 0
-63 66 67 0
-68 38 0
-68 -15 0
-38 15 68 0
6 -68 -69 0
-6 68 -69 0
6 68 69 0
-6 -68 69 0
70 67 0
70 69 0
-67 -69 -70 0
-71 -60 0
-71 -70 0
60 70 71 0
72 25 0
72 -27 0
-25 27 -72 0
-41 -25 -74 0
41 25 -74 0
-41 25 74 0
41 -25 74 0
74 49 -75 0
-74 -49 -75 0
74 -49 75 0
-74 49 75 0
-73 -75 -76 0
73 75 -76 0
-73 75 76 0
73 -75 76 0
-72 76 -77 0
72 -76 -77 0
-72 -76 77 0
72 76 77 0
-71 77 -78 0
71 -77 -78 0
-71 -77 78 0
71 77 78 0
57 78 -79 0
-57 -78 -79 0
57 -78 79 0
-57 78 79 0
80 -19 0
80 -79 0
19 79 -80 0
81 -10 0
81 80 0
10 -80 -81 0
-24 -61 -82 0
24 61 -82 0
-24 61 82 0
24 -61 82 0
83 82 0
83 43 0
-82 -43 -83 0
29 -12 -84 0
-29 12 -84 0
29 12 84 0
-29 -12 84 0
37 24 -85 0
-37 -24 -85 0
37 -24 85 0
-37 24 85 0
42 85 -86 0
-42 -85 -86 0
42 -85 86 0
-42 85 86 0
-87 84 0
-87 -86 0
-84 86 87 0
-40 -6 -88 0
40 6 -88 0
-40 6 88 0
40 -6 88 0
89 88 0
89 -43 0
-88 43 -89 0
90 -24 0
90 -14 0
24 14 -90 0
91 -89 0
91 -90 0
89 90 -91 0
-92 2 -93 0
92 -2 -93 0
-92 -2 93 0
92 2 93 0
94 91 0
94 -93 0
-91 93 -94 0
95 -20 0
95 9 0
20 -9 -95 0
-96 -94 0
-96 -95 0
94 95 96 0
-97 87 0
-97 96 0
-87 -96 97 0
-29 47 -98 0
29 -47 -98 0
-29 -47 98 0
29 47 98 0
98 -23 -99 0
-98 23 -99 0
98 23 99 0
-98 -23 99 0
99 68 -100 0
-99 -68 -100 0
99 -68 100 0
-99 68 100 0
-101 -12 0
-101 -100 0
12 100 101 0
-49 101 -102 0
49 -101 -102 0
-49 -101 102 0
49 101 102 0
103 -58 0
103 -49 0
58 49 -103 0
-21 82 -104 0
21 -82 -104 0
-21 -82 104 0
21 82 104 0
103 -104 -105 0
-103 104 -105 0
103 104 105 0
-103 -104 105 0
-106 -102 0
-106 105 0
102 -105 106 0
-97 -106 -107 0
97 106 -107 0
-97 106 107 0
97 -106 107 0
108 -83 0
108 107 0
83 -107 -108 0
-109 11 0
-109 98 0
-11 -98 109 0
110 109 0
110 -13 0
-109 13 -110 0
111 -6 0
111 -1 0
6 1 -111 0
-112 -2 0
-112 -111 0
2 111 112 0
-45 -112 -113 0
45 112 -113 0
-45 112 113 0
45 -112 113 0
35 9 -114 0
-35 -9 -114 0
35 -9 114 0
-35 9 114 0
115 -9 0
115 -114 0
9 114 -115 0
-113 -115 -116 0
113 115 -116 0
-113 115 116 0
113 -115 116 0
-117 27 0
-117 -48 0
-27 48 117 0
-118 -92 0
-118 117 0
92 -117 118 0
-119 116 0
-119 118 0
-116 -118 119 0
-6 -40 -120 0
6 40 -120 0
-6 40 120 0
6 -40 120 0
119 120 -121 0
-119 -120 -121 0
119 -120 121 0
-119 120 121 0
-110 121 -122 0
110 -121 -122 0
-110 -121 122 0
110 121 122 0
-123 108 0
-123 -122 0
-108 122 123 0
-124 -13 0
-124 27 0
13 -27 124 0
-125 -124 0
-125 -33 0
124 33 125 0
125 -85 -126 0
-125 85 -126 0
125 85 126 0
-125 -85 126 0
-127 98 0
-127 29 0
-98 -29 127 0
-128 -126 0
-128 -127 0
126 127 128 0
-129 14 0
-129 -9 0
-14 9 129 0
-128 -129 -130 0
128 129 -130 0
-128 129 130 0
128 -129 130 0
131 123 0
131 -130 0
-123 130 -131 0
-81 131 -132 0
81 -131 -132 0
-81 -131 132 0
81 131 132 0
-74 -65 59 114 -91 -94 0
35 -120 0
10 50 21 0
120 -53 130 -105 -45 0
47 64 126 0
-51 -33 -70 0
-64 -118 0
-76 119 -93 36 -43 0
52 -33 36 0
-5 8 126 -56 0
71 -98 0
-5 -98 75 0
109 -100 -105 22 9 -119 0
-118 24 119 0
93 -32 -103 -123 23 87 0
9 -103 -14 86 30 -5 0
-27 116 9 0
-44 -10 74 113 0
-79 -68 -23 -43 82 65 0
52 -68 0
54 13 -23 104 -28 0
-18 -122 -115 31 0
28 -41 -69 -104 99 0
-60 -9 -80 26 -77 -122 0
57 -42 92 81 0
-98 -105 21 -109 -132 0
-27 -42 -130 -108 86 0
43 -5 26 0
93 72 77 -108 110 -88 0
-34 -24 -95 -107 -63 -80 0
-45 129 43 -71 -25 0
23 -30 127 -85 0
51 -130 -24 -35 0
4 -119 -96 -80 -56 0
51 60 72 0
12 -27 78 106 74 0
67 -86 0
1 -81 -107 -32 44 0
24 49 112 0
111 -99 -65 -97 -22 66 0
95 -97 0
33 80 0
7 -44 93 0
48 -43 -71 -70 32 0
31 74 10 0
91 -42 -28 56 0
-125 82 47 -69 78 0
-52 -127 104 70 96 -32 0
-126 -112 64 -90 -80 0
-4 54 -24 0
-67 79 110 35 -69 29 0
76 27 100 13 0
88 -4 -19 -96 -40 0
-126 -38 -41 -27 -120 0
-39 130 -62 0
-23 50 122 119 0
-89 -119 114 52 -82 0
-91 2 122 0
74 -120 -109 -50 0
132 0
